
n_res = 6;
rcap = [52, 49, 430, 442, 454, 415];
rtype = [1, 1, 2, 2, 2, 2];
n_tasks = 50;
modes =  [{1, 2, 3, 4, 5, 6}, {7, 8, 9, 10, 11, 12}, {13, 14, 15, 16, 17, 18}, {19, 20, 21, 22, 23, 24}, {25, 26, 27, 28, 29, 30}, {31, 32, 33, 34, 35, 36}, {37, 38, 39, 40, 41, 42}, {43, 44, 45, 46, 47, 48}, {49, 50, 51, 52, 53, 54}, {55, 56, 57, 58, 59, 60}, {61, 62, 63, 64, 65, 66}, {67, 68, 69, 70, 71, 72}, {73, 74, 75, 76, 77, 78}, {79, 80, 81, 82, 83, 84}, {85, 86, 87, 88, 89, 90}, {91, 92, 93, 94, 95, 96}, {97, 98, 99, 100, 101, 102}, {103, 104, 105, 106, 107, 108}, {109, 110, 111, 112, 113, 114}, {115, 116, 117, 118, 119, 120}, {121, 122, 123, 124, 125, 126}, {127, 128, 129, 130, 131, 132}, {133, 134, 135, 136, 137, 138}, {139, 140, 141, 142, 143, 144}, {145, 146, 147, 148, 149, 150}, {151, 152, 153, 154, 155, 156}, {157, 158, 159, 160, 161, 162}, {163, 164, 165, 166, 167, 168}, {169, 170, 171, 172, 173, 174}, {175, 176, 177, 178, 179, 180}, {181, 182, 183, 184, 185, 186}, {187, 188, 189, 190, 191, 192}, {193, 194, 195, 196, 197, 198}, {199, 200, 201, 202, 203, 204}, {205, 206, 207, 208, 209, 210}, {211, 212, 213, 214, 215, 216}, {217, 218, 219, 220, 221, 222}, {223, 224, 225, 226, 227, 228}, {229, 230, 231, 232, 233, 234}, {235, 236, 237, 238, 239, 240}, {241, 242, 243, 244, 245, 246}, {247, 248, 249, 250, 251, 252}, {253, 254, 255, 256, 257, 258}, {259, 260, 261, 262, 263, 264}, {265, 266, 267, 268, 269, 270}, {271, 272, 273, 274, 275, 276}, {277, 278, 279, 280, 281, 282}, {283, 284, 285, 286, 287, 288}, {289, 290, 291, 292, 293, 294}, {295, 296, 297, 298, 299, 300}];
succ =  [{36, 20, 19, 17, 14, 2}, {32, 29, 28, 26, 25, 23, 15, 13}, {36, 29, 23, 14, 7}, {36, 29, 24, 23, 20, 15}, {36, 29, 26, 25, 24, 23, 18}, {32, 28, 25, 23, 15}, {32, 28, 26, 15}, {36, 32, 29, 15}, {35, 32, 29, 28, 27, 22, 21}, {32, 30, 29, 25, 23}, {50, 36, 35, 33, 31, 29, 24}, {36, 35, 32, 30, 22}, {35, 27, 24, 22}, {35, 32, 30, 27, 21}, {35, 27, 22, 21}, {46, 32, 29, 22}, {50, 48, 35, 33, 31, 30, 27}, {50, 48, 47, 46, 35, 33, 32, 31}, {38, 31, 30, 28, 27}, {50, 49, 48, 38, 32, 31, 28}, {48, 47, 46, 45, 38, 33, 31}, {50, 49, 48, 38, 33, 31}, {50, 45, 38, 33, 27}, {48, 43, 38, 34, 30}, {48, 46, 35, 34, 33}, {49, 48, 43, 42, 40, 35}, {46, 37, 34}, {47, 45, 44, 43, 42, 41, 39}, {47, 45, 44, 42, 39, 37}, {49, 47, 46, 45, 42, 39}, {42, 34}, {42, 34}, {42, 41, 40, 37}, {44, 41, 40, 39}, {45, 41, 39}, {40, 39}, {43}, {40}, {}, {}, {}, {}, {}, {}, {}, {}, {}, {}, {}, {}];
n_opt = 300;
dur = [3, 6, 11, 13, 14, 19, 1, 3, 12, 15, 17, 19, 1, 8, 13, 15, 16, 18, 1, 9, 10, 16, 17, 18, 3, 7, 14, 16, 17, 19, 8, 11, 12, 13, 17, 18, 9, 12, 13, 14, 16, 20, 1, 4, 6, 13, 18, 19, 1, 2, 7, 12, 13, 17, 8, 10, 14, 15, 16, 17, 1, 2, 3, 6, 13, 14, 4, 6, 9, 10, 12, 16, 4, 6, 7, 8, 9, 10, 2, 7, 8, 11, 13, 17, 2, 4, 5, 12, 14, 19, 11, 13, 16, 17, 18, 19, 2, 3, 6, 9, 19, 20, 7, 10, 14, 15, 16, 19, 2, 3, 4, 11, 16, 20, 3, 6, 9, 16, 18, 19, 1, 12, 15, 16, 17, 19, 3, 5, 8, 9, 17, 20, 4, 5, 8, 10, 13, 16, 1, 3, 7, 8, 19, 20, 1, 2, 3, 4, 12, 13, 4, 5, 6, 7, 13, 19, 1, 3, 9, 12, 13, 14, 3, 4, 5, 9, 10, 14, 1, 7, 8, 9, 14, 16, 5, 8, 9, 10, 12, 13, 4, 9, 11, 12, 13, 14, 4, 7, 11, 15, 16, 20, 1, 2, 5, 7, 13, 19, 1, 2, 12, 13, 17, 20, 4, 5, 6, 8, 9, 10, 2, 5, 10, 14, 16, 19, 2, 3, 4, 5, 17, 18, 8, 9, 10, 12, 13, 20, 1, 7, 12, 13, 14, 17, 1, 3, 4, 5, 15, 17, 3, 12, 14, 15, 19, 20, 1, 7, 10, 11, 16, 20, 4, 5, 9, 10, 16, 19, 2, 11, 12, 16, 17, 18, 9, 12, 14, 16, 17, 20, 2, 3, 10, 11, 12, 15, 4, 8, 12, 13, 14, 15, 1, 3, 4, 5, 8, 13, 2, 3, 5, 12, 17, 20, 4, 5, 6, 9, 11, 14];
rreq = [|17, 14, 13, 10, 9, 7, 19, 18, 17, 16, 15, 15, 5, 5, 5, 5, 5, 5, 17, 14, 11, 6, 5, 2, 15, 15, 15, 15, 15, 15, 13, 12, 11, 10, 9, 7, 14, 13, 13, 13, 12, 12, 14, 13, 9, 9, 3, 1, 15, 14, 14, 14, 14, 14, 7, 6, 4, 3, 3, 2, 17, 13, 13, 9, 7, 7, 14, 13, 12, 11, 11, 10, 17, 17, 14, 13, 11, 10, 20, 20, 20, 20, 20, 20, 15, 14, 13, 13, 12, 11, 17, 16, 15, 13, 12, 11, 9, 7, 6, 5, 3, 2, 10, 10, 10, 10, 10, 10, 16, 14, 11, 10, 8, 8, 5, 5, 5, 4, 4, 4, 16, 15, 15, 15, 13, 13, 14, 14, 14, 14, 14, 14, 16, 13, 10, 7, 5, 1, 19, 16, 11, 11, 5, 4, 8, 8, 6, 5, 5, 3, 18, 16, 15, 13, 13, 12, 5, 5, 5, 4, 4, 4, 2, 1, 1, 1, 1, 1, 17, 16, 11, 11, 7, 5, 11, 9, 8, 7, 6, 3, 16, 15, 15, 13, 13, 11, 18, 17, 16, 15, 14, 13, 12, 11, 11, 10, 9, 9, 7, 6, 6, 5, 4, 4, 18, 16, 16, 14, 11, 9, 16, 13, 10, 9, 5, 4, 16, 16, 16, 15, 15, 15, 3, 3, 3, 3, 3, 3, 13, 10, 8, 7, 5, 3, 12, 12, 11, 11, 9, 9, 3, 3, 3, 2, 2, 2, 10, 9, 9, 7, 6, 6, 11, 11, 11, 10, 10, 10, 20, 18, 14, 14, 10, 9, 15, 13, 12, 12, 10, 10, 17, 16, 15, 14, 13, 13, 5, 5, 4, 4, 2, 2, 11, 11, 11, 11, 11, 11, 13, 10, 10, 7, 5, 4, 12, 10, 8, 7, 5, 3
 |10, 9, 8, 8, 7, 5, 3, 3, 3, 3, 3, 3, 8, 7, 7, 6, 4, 3, 17, 16, 14, 14, 12, 12, 19, 17, 17, 16, 16, 15, 9, 6, 5, 5, 3, 1, 11, 10, 9, 7, 6, 6, 12, 11, 11, 9, 8, 7, 11, 10, 9, 8, 7, 5, 16, 14, 11, 11, 7, 3, 7, 6, 6, 4, 4, 3, 19, 17, 17, 16, 15, 15, 14, 10, 9, 8, 6, 4, 18, 18, 18, 18, 18, 18, 7, 6, 6, 5, 4, 4, 11, 10, 10, 10, 10, 10, 9, 8, 7, 6, 5, 3, 11, 10, 9, 7, 7, 6, 5, 5, 5, 4, 3, 3, 18, 14, 14, 13, 10, 9, 15, 15, 11, 9, 9, 6, 4, 4, 3, 3, 2, 2, 19, 17, 15, 12, 10, 8, 17, 16, 12, 12, 10, 8, 9, 8, 8, 6, 4, 3, 20, 19, 19, 19, 19, 19, 4, 3, 3, 3, 3, 3, 12, 8, 8, 6, 4, 3, 4, 3, 3, 3, 3, 3, 17, 16, 14, 14, 13, 12, 15, 13, 12, 10, 8, 8, 5, 4, 4, 4, 4, 4, 17, 14, 13, 10, 9, 7, 14, 14, 10, 9, 8, 5, 13, 11, 9, 8, 6, 4, 16, 13, 11, 9, 6, 6, 16, 14, 10, 6, 3, 3, 3, 3, 3, 3, 3, 3, 19, 17, 16, 16, 14, 14, 11, 10, 10, 10, 9, 9, 14, 11, 8, 7, 4, 3, 9, 8, 7, 7, 5, 4, 13, 10, 9, 9, 6, 6, 11, 10, 9, 8, 7, 6, 13, 11, 9, 8, 4, 4, 15, 13, 10, 8, 5, 2, 18, 17, 17, 16, 16, 15, 10, 9, 9, 9, 9, 9, 11, 10, 7, 6, 5, 3, 14, 13, 11, 9, 9, 8
 |13, 9, 9, 7, 4, 4, 6, 5, 5, 4, 4, 4, 11, 8, 6, 6, 5, 2, 20, 18, 18, 17, 17, 16, 15, 15, 15, 15, 15, 15, 9, 8, 8, 7, 6, 6, 20, 17, 11, 8, 6, 4, 16, 15, 15, 14, 14, 14, 7, 5, 5, 5, 3, 3, 13, 13, 11, 11, 10, 9, 19, 16, 16, 14, 10, 10, 13, 10, 9, 8, 7, 7, 9, 9, 6, 6, 5, 2, 16, 16, 14, 14, 13, 12, 10, 10, 10, 9, 9, 8, 18, 16, 16, 16, 15, 14, 14, 13, 12, 12, 12, 11, 10, 10, 9, 9, 8, 8, 5, 3, 3, 3, 1, 1, 13, 10, 9, 8, 6, 4, 4, 3, 3, 3, 3, 3, 5, 4, 4, 3, 3, 3, 1, 1, 1, 1, 1, 1, 9, 9, 9, 9, 9, 9, 18, 16, 15, 15, 13, 11, 15, 15, 15, 14, 14, 14, 11, 9, 7, 5, 2, 2, 16, 14, 13, 13, 11, 10, 15, 15, 14, 14, 12, 12, 7, 6, 5, 3, 2, 2, 3, 3, 3, 3, 3, 3, 4, 4, 4, 4, 4, 4, 12, 12, 12, 12, 11, 11, 16, 13, 11, 8, 7, 4, 4, 4, 4, 4, 4, 4, 10, 10, 9, 8, 7, 6, 15, 12, 12, 9, 8, 5, 16, 15, 14, 12, 12, 10, 7, 7, 6, 6, 6, 5, 11, 10, 10, 10, 10, 10, 12, 12, 11, 10, 8, 7, 11, 9, 9, 6, 6, 5, 16, 16, 16, 15, 14, 14, 19, 16, 14, 14, 11, 9, 15, 12, 12, 9, 9, 8, 12, 11, 10, 10, 9, 9, 7, 7, 7, 7, 7, 7, 18, 15, 10, 9, 6, 5, 14, 11, 11, 10, 9, 8, 19, 19, 19, 19, 19, 19
 |16, 13, 13, 11, 11, 9, 16, 15, 13, 11, 9, 6, 17, 16, 14, 11, 9, 9, 9, 8, 7, 7, 5, 5, 13, 12, 8, 7, 6, 3, 10, 10, 9, 7, 7, 6, 9, 8, 6, 5, 4, 3, 14, 13, 13, 11, 11, 9, 18, 14, 12, 10, 9, 6, 19, 14, 12, 11, 5, 4, 20, 19, 19, 19, 18, 18, 17, 17, 16, 15, 14, 14, 12, 12, 12, 11, 11, 10, 14, 14, 14, 14, 14, 14, 14, 13, 13, 11, 11, 10, 8, 8, 8, 8, 8, 8, 16, 15, 13, 10, 6, 3, 8, 6, 6, 5, 2, 1, 10, 10, 8, 4, 2, 1, 10, 9, 8, 6, 5, 3, 14, 12, 12, 10, 7, 6, 16, 15, 13, 13, 12, 10, 12, 10, 10, 7, 7, 5, 14, 11, 10, 9, 5, 5, 20, 16, 14, 12, 10, 7, 15, 14, 14, 14, 14, 14, 15, 15, 14, 13, 12, 10, 9, 6, 5, 3, 2, 1, 12, 9, 8, 7, 4, 4, 19, 13, 13, 9, 4, 3, 18, 18, 18, 18, 18, 18, 17, 17, 14, 12, 9, 9, 14, 13, 13, 12, 11, 9, 11, 9, 9, 6, 5, 3, 12, 9, 8, 8, 7, 6, 19, 18, 18, 18, 18, 18, 16, 16, 12, 12, 7, 7, 4, 3, 3, 3, 3, 3, 20, 19, 19, 18, 18, 18, 20, 17, 15, 14, 12, 10, 8, 8, 8, 8, 7, 7, 7, 6, 6, 6, 5, 4, 3, 3, 3, 3, 3, 3, 8, 5, 5, 3, 3, 1, 11, 9, 8, 5, 5, 3, 19, 14, 12, 11, 8, 7, 15, 13, 13, 11, 11, 9, 15, 14, 14, 14, 14, 14, 18, 13, 11, 10, 6, 4, 10, 9, 6, 6, 4, 3
 |14, 12, 10, 8, 6, 6, 12, 12, 10, 8, 8, 6, 7, 5, 5, 3, 2, 2, 13, 11, 7, 6, 3, 2, 18, 17, 16, 15, 13, 12, 14, 12, 12, 11, 11, 10, 19, 17, 16, 14, 12, 11, 16, 13, 11, 11, 8, 7, 12, 11, 9, 8, 5, 3, 15, 12, 12, 10, 7, 7, 13, 12, 8, 7, 5, 2, 11, 10, 9, 8, 7, 6, 13, 10, 8, 7, 5, 3, 10, 10, 9, 8, 7, 7, 18, 13, 11, 8, 7, 3, 13, 13, 13, 12, 12, 12, 3, 2, 2, 1, 1, 1, 9, 8, 6, 5, 4, 3, 13, 13, 12, 9, 9, 8, 6, 6, 5, 4, 2, 2, 15, 13, 12, 12, 11, 10, 20, 19, 19, 19, 19, 19, 18, 17, 17, 17, 16, 16, 12, 10, 9, 8, 7, 7, 5, 4, 4, 4, 3, 3, 16, 13, 10, 10, 7, 6, 18, 14, 11, 11, 7, 3, 9, 8, 8, 7, 7, 7, 4, 4, 4, 4, 3, 3, 17, 16, 14, 13, 12, 12, 18, 17, 16, 14, 13, 12, 10, 9, 8, 8, 7, 7, 13, 11, 8, 7, 5, 3, 13, 13, 13, 12, 12, 12, 17, 16, 16, 16, 15, 15, 19, 16, 14, 9, 7, 5, 10, 10, 9, 8, 7, 7, 17, 17, 17, 17, 16, 16, 12, 10, 9, 5, 3, 3, 18, 16, 16, 16, 14, 14, 12, 12, 12, 12, 12, 12, 13, 12, 10, 9, 5, 3, 17, 16, 16, 16, 14, 14, 11, 11, 11, 11, 10, 10, 17, 17, 17, 16, 16, 15, 18, 15, 12, 11, 6, 5, 13, 11, 11, 9, 8, 6, 11, 9, 9, 7, 6, 6, 17, 17, 16, 16, 15, 14, 13, 13, 11, 8, 7, 4
 |4, 3, 3, 2, 2, 1, 14, 13, 12, 10, 9, 7, 11, 11, 11, 11, 11, 11, 13, 13, 13, 13, 13, 13, 12, 12, 10, 8, 8, 6, 11, 10, 10, 9, 8, 8, 16, 14, 12, 8, 6, 3, 15, 15, 15, 15, 15, 15, 17, 16, 12, 11, 10, 8, 6, 5, 4, 4, 3, 3, 16, 16, 15, 14, 12, 11, 13, 11, 10, 8, 8, 7, 17, 15, 13, 9, 8, 5, 16, 14, 12, 10, 10, 8, 14, 12, 9, 6, 5, 4, 9, 9, 9, 8, 8, 7, 13, 13, 11, 10, 9, 9, 16, 15, 12, 8, 7, 4, 9, 8, 6, 5, 3, 2, 19, 15, 14, 12, 11, 10, 14, 10, 10, 9, 5, 4, 4, 4, 4, 4, 4, 4, 14, 12, 9, 8, 6, 4, 18, 16, 14, 12, 11, 8, 13, 13, 12, 10, 7, 7, 9, 9, 9, 9, 9, 9, 2, 2, 2, 2, 2, 2, 11, 10, 9, 9, 7, 7, 1, 1, 1, 1, 1, 1, 9, 9, 7, 6, 5, 2, 10, 9, 9, 9, 8, 8, 7, 7, 5, 4, 4, 2, 12, 11, 8, 7, 5, 2, 4, 3, 3, 2, 1, 1, 19, 17, 17, 15, 14, 14, 18, 16, 15, 12, 12, 10, 9, 8, 7, 5, 5, 2, 4, 4, 4, 4, 4, 4, 16, 15, 15, 15, 14, 14, 11, 9, 9, 8, 4, 4, 16, 16, 15, 13, 12, 12, 17, 16, 16, 16, 16, 16, 19, 16, 10, 9, 7, 3, 20, 19, 19, 18, 17, 17, 17, 16, 14, 9, 6, 5, 8, 8, 8, 7, 7, 6, 7, 6, 6, 6, 6, 6, 18, 18, 18, 18, 18, 18, 18, 16, 16, 13, 13, 12, 12, 11, 9, 5, 5, 2|];